unsat
(forall ((A (_ BitVec 21))
         (B (_ BitVec 21))
         (C (_ BitVec 1))
         (D (_ BitVec 1))
         (E (_ BitVec 21))
         (F (_ BitVec 21))
         (G (_ BitVec 21))
         (H (_ BitVec 1))
         (I (_ BitVec 40))
         (J (_ BitVec 21))
         (K (_ BitVec 21))
         (L (_ BitVec 1))
         (M (_ BitVec 14))
         (N (_ BitVec 21))
         (O (_ BitVec 14))
         (P (_ BitVec 21))
         (Q (_ BitVec 14))
         (R (_ BitVec 21))
         (S (_ BitVec 14))
         (T (_ BitVec 14))
         (U (_ BitVec 21))
         (V (_ BitVec 21))
         (W (_ BitVec 21))
         (X (_ BitVec 35))
         (Y (_ BitVec 9))
         (Z (_ BitVec 35))
         (A1 (_ BitVec 40))
         (B1 (_ BitVec 1))
         (C1 (_ BitVec 21))
         (D1 (_ BitVec 1))
         (E1 (_ BitVec 14))
         (F1 (_ BitVec 1))
         (G1 (_ BitVec 21))
         (H1 (_ BitVec 26))
         (I1 (_ BitVec 21))
         (J1 (_ BitVec 1))
         (K1 (_ BitVec 21))
         (L1 (_ BitVec 1))
         (M1 (_ BitVec 21))
         (N1 (_ BitVec 21))
         (O1 (_ BitVec 21))
         (P1 (_ BitVec 14))
         (Q1 (_ BitVec 21))
         (R1 (_ BitVec 14))
         (S1 (_ BitVec 21))
         (T1 (_ BitVec 21))
         (U1 (_ BitVec 21))
         (V1 (_ BitVec 21))
         (W1 (_ BitVec 21))
         (X1 (_ BitVec 21))
         (Y1 (_ BitVec 35))
         (Z1 (_ BitVec 1))
         (A2 (_ BitVec 35))
         (B2 (_ BitVec 1))
         (C2 (_ BitVec 35))
         (D2 (_ BitVec 40))
         (E2 (_ BitVec 21))
         (F2 (_ BitVec 21))
         (G2 (_ BitVec 21))
         (H2 (_ BitVec 14))
         (I2 (_ BitVec 10))
         (J2 (_ BitVec 23))
         (K2 (_ BitVec 10))
         (L2 (_ BitVec 23))
         (M2 (_ BitVec 10))
         (N2 (_ BitVec 23))
         (O2 (_ BitVec 23))
         (P2 (_ BitVec 23))
         (Q2 (_ BitVec 23))
         (R2 (_ BitVec 1))
         (S2 (_ BitVec 1))
         (T2 (_ BitVec 1))
         (U2 (_ BitVec 21))
         (V2 (_ BitVec 13))
         (W2 (_ BitVec 13))
         (X2 (_ BitVec 24))
         (Y2 (_ BitVec 21))
         (Z2 (_ BitVec 24))
         (A3 (_ BitVec 14))
         (B3 (_ BitVec 10))
         (C3 (_ BitVec 24))
         (D3 (_ BitVec 1))
         (E3 (_ BitVec 40))
         (F3 (_ BitVec 24))
         (G3 (_ BitVec 1)))
  (! (let ((a!1 (or ((_ bit2bool 0) I)
                    ((_ bit2bool 1) I)
                    (not ((_ bit2bool 22) I))
                    (not ((_ bit2bool 2) I))
                    (not (= ((_ extract 0 0) Y2) #b1))
                    (not ((_ bit2bool 2) W1))))
           (a!2 (or ((_ bit2bool 2) I)
                    (not ((_ bit2bool 20) I))
                    (not ((_ bit2bool 21) I))
                    (not ((_ bit2bool 22) I))
                    (not ((_ bit2bool 0) I))
                    (not (= ((_ extract 0 0) Y2) #b1))
                    (not ((_ bit2bool 2) W1))))
           (a!3 (or ((_ bit2bool 20) I)
                    (not ((_ bit2bool 0) I))
                    (not (= ((_ extract 0 0) Y2) #b1))
                    (= ((_ extract 0 0) W1) #b1)))
           (a!4 (or ((_ bit2bool 0) H1)
                    ((_ bit2bool 1) H2)
                    (not ((_ bit2bool 1) H1))
                    (not (= ((_ extract 0 0) V1) #b1))
                    (= ((_ extract 14 14) H1) #b1)))
           (a!5 (or ((_ bit2bool 1) H1)
                    ((_ bit2bool 14) H1)
                    (not ((_ bit2bool 13) H1))
                    ((_ bit2bool 1) H2)
                    (not ((_ bit2bool 0) H1))
                    (not (= ((_ extract 0 0) U1) #b1))))
           (a!6 (or ((_ bit2bool 13) H1)
                    (not ((_ bit2bool 0) H1))
                    (not (= ((_ extract 0 0) U1) #b1))
                    (= ((_ extract 0 0) H2) #b1)))
           (a!7 (or (not ((_ bit2bool 15) H1))
                    ((_ bit2bool 2) H1)
                    (not ((_ bit2bool 14) H1))
                    (not ((_ bit2bool 13) H1))
                    (not ((_ bit2bool 0) H1))
                    (not ((_ bit2bool 2) H2))
                    (not (= ((_ extract 0 0) U1) #b1))))
           (a!8 (or (not ((_ bit2bool 14) H1))
                    ((_ bit2bool 13) H1)
                    (not ((_ bit2bool 1) H1))
                    (not (= ((_ extract 0 0) U1) #b1))
                    (not (= ((_ extract 1 1) H2) #b1))))
           (a!9 (or ((_ bit2bool 2) H2)
                    (not ((_ bit2bool 2) H1))
                    (not (= ((_ extract 0 0) U1) #b1))
                    (not (= ((_ extract 24 13) H1) #x000))))
           (a!10 (or ((_ bit2bool 2) H1)
                     (not ((_ bit2bool 14) H1))
                     ((_ bit2bool 15) H1)
                     (not ((_ bit2bool 13) H1))
                     ((_ bit2bool 2) H2)
                     (not ((_ bit2bool 0) H1))
                     (not (= ((_ extract 0 0) U1) #b1))))
           (a!11 (ite (= ((_ extract 25 25) H1) #b1)
                      (bvmul #b11111111111111
                             (concat ((_ extract 25 25) H1)
                                     ((_ extract 25 13) H1)))
                      (concat #b00 ((_ extract 24 13) H1))))
           (a!13 (or ((_ bit2bool 1) H1)
                     ((_ bit2bool 14) H1)
                     (not ((_ bit2bool 13) H1))
                     ((_ bit2bool 1) H2)
                     (not ((_ bit2bool 0) H1))
                     (not (= ((_ extract 0 0) V1) #b1))))
           (a!14 (or ((_ bit2bool 0) I)
                     ((_ bit2bool 1) I)
                     (not ((_ bit2bool 22) I))
                     (not ((_ bit2bool 2) I))
                     (not (= ((_ extract 0 0) V1) #b1))
                     (not ((_ bit2bool 2) W1))))
           (a!15 (or ((_ bit2bool 13) H1)
                     (not ((_ bit2bool 0) H1))
                     (not (= ((_ extract 0 0) V1) #b1))
                     (= ((_ extract 0 0) H2) #b1)))
           (a!16 (or (not (= Z1 #b1))
                     (not ((_ bit2bool 2) I))
                     (not (= ((_ extract 0 0) U1) #b1))))
           (a!17 (or ((_ bit2bool 2) H1)
                     (not ((_ bit2bool 0) H1))
                     (not ((_ bit2bool 2) H2))
                     (not (= ((_ extract 0 0) V1) #b1))
                     (not (= ((_ extract 25 13) H1) #b1111111111111))))
           (a!18 (or (not (= ((_ extract 0 0) U1) #b1))
                     (= ((_ extract 0 0) F2) #b1)))
           (a!19 (or (not (= ((_ extract 0 0) G1) #b1))
                     (= ((_ extract 0 0) E2) #b1)))
           (a!20 (or (not (= ((_ extract 0 0) V1) #b1))
                     (= ((_ extract 0 0) U) #b1)))
           (a!21 (or (not (= Z1 #b1))
                     (not ((_ bit2bool 0) H1))
                     (not (= ((_ extract 0 0) U1) #b1))))
           (a!22 ((_ extract 9 2)
                   (bvadd (concat #b000 ((_ extract 22 2) P2)) (concat #b0 Q2))))
           (a!25 (concat ((_ extract 7 2)
                           (bvadd ((_ extract 34 4) Y1) (concat #x00 J2)))
                         (bvadd ((_ extract 5 4) Y1) ((_ extract 1 0) J2))
                         ((_ extract 3 0) Y1)))
           (a!26 (concat ((_ extract 5 2)
                           (bvadd ((_ extract 34 6) X) (concat #b000000 L2)))
                         (bvadd ((_ extract 7 6) X) ((_ extract 1 0) L2))
                         ((_ extract 5 0) X)))
           (a!28 (not (= (bvxor ((_ extract 19 1) U) ((_ extract 20 2) U))
                         #b0000000000000000000)))
           (a!29 (concat ((_ extract 3 2)
                           (bvadd ((_ extract 34 8) A2) (concat #x0 N2)))
                         (bvadd ((_ extract 9 8) A2) ((_ extract 1 0) N2))
                         ((_ extract 7 0) A2)))
           (a!31 (= (concat (bvadd ((_ extract 1 0) O2) ((_ extract 11 10) Z))
                            ((_ extract 9 0) Z))
                    ((_ extract 11 0) O))))
     (let ((a!12 (or (not (= ((_ extract 0 0) Y2) #b1))
                     (not ((_ bit2bool 12) H1))
                     (not (= a!11 #b00000000000001))
                     (not (= ((_ extract 12 0) H2) #b0000000000100))))
           (a!23 (= (concat a!22
                            (bvadd ((_ extract 1 0) Q2) ((_ extract 3 2) P2))
                            ((_ extract 1 0) P2))
                    ((_ extract 11 0) T)))
           (a!27 (or ((_ bit2bool 1) F2)
                     (not (= ((_ extract 0 0) U1) #b1))
                     (not (= ((_ extract 19 1) F2) ((_ extract 20 2) F2)))
                     (= ((_ extract 11 0) S) a!26)))
           (a!30 (or ((_ bit2bool 10) U)
                     (not (= ((_ extract 0 0) V1) #b1))
                     a!28
                     (= ((_ extract 11 0) Q) a!29))))
     (let ((a!24 (or ((_ bit2bool 1) E2)
                     ((_ bit2bool 2) E2)
                     (not (= ((_ extract 0 0) G1) #b1))
                     a!23)))
     (let ((a!32 (and (or (not ((_ bit2bool 0) S2)) (not (= R2 #b0)))
                      (not ((_ bit2bool 5) K2))
                      (not ((_ bit2bool 4) K2))
                      (not ((_ bit2bool 3) K2))
                      (not ((_ bit2bool 2) K2))
                      (not ((_ bit2bool 1) K2))
                      (not ((_ bit2bool 0) K2))
                      (not (= ((_ extract 0 0) B3) #b1))
                      (or (not (= J1 #b1)) (= B1 #b0) (= Z1 #b0))
                      (not ((_ bit2bool 1) I2))
                      (or (not (= H #b1)) (not (= Z1 #b0)))
                      (not ((_ bit2bool 0) I2))
                      (or (not (= J1 #b1)) (not (= H #b1)))
                      (not ((_ bit2bool 2) I2))
                      a!1
                      a!2
                      a!3
                      (not ((_ bit2bool 1) M2))
                      (not ((_ bit2bool 3) I2))
                      (not ((_ bit2bool 5) I2))
                      a!4
                      (not ((_ bit2bool 6) I2))
                      (not ((_ bit2bool 2) M2))
                      a!5
                      a!6
                      a!7
                      (not ((_ bit2bool 1) B3))
                      (not ((_ bit2bool 7) I2))
                      (not ((_ bit2bool 3) M2))
                      a!8
                      a!9
                      a!10
                      (not ((_ bit2bool 0) M2))
                      (not ((_ bit2bool 4) I2))
                      a!12
                      (or (not (= Z1 #b1))
                          (not ((_ bit2bool 25) H1))
                          (= ((_ extract 13 13) H2) #b1)
                          (not ((_ bit2bool 0) X1))
                          (not (= M #b00000000000100))
                          (not (= A3 #b00000000000001)))
                      a!13
                      a!14
                      a!15
                      a!16
                      a!17
                      (or ((_ bit2bool 0) M1) (not ((_ bit2bool 0) T1)))
                      a!18
                      a!19
                      a!20
                      a!21
                      a!24
                      (or ((_ bit2bool 2) M1)
                          ((_ bit2bool 1) M1)
                          (not ((_ bit2bool 0) T1))
                          (= ((_ extract 11 0) E1) a!25))
                      a!27
                      a!30
                      (or (not ((_ bit2bool 14) H1))
                          (not ((_ bit2bool 13) H1))
                          ((_ bit2bool 1) H2)
                          (not ((_ bit2bool 0) T1))
                          (not ((_ bit2bool 1) H1))
                          (not ((_ bit2bool 0) H1)))
                      (or ((_ bit2bool 13) H1)
                          (not ((_ bit2bool 0) T1))
                          (not ((_ bit2bool 0) H1))
                          (= ((_ extract 0 0) H2) #b1))
                      (or (not ((_ bit2bool 15) H1))
                          ((_ bit2bool 2) H1)
                          (not ((_ bit2bool 13) H1))
                          (not ((_ bit2bool 0) T1))
                          (not ((_ bit2bool 1) H1))
                          (not ((_ bit2bool 0) H1))
                          (not ((_ bit2bool 2) H2)))
                      (or (not (= G1 #b000000000000000000001)) a!23)
                      (or (= ((_ extract 11 0) E1) a!25)
                          (not (= T1 #b000000000000000000001)))
                      (or (not (= U1 #b000000000000000000001))
                          (= ((_ extract 11 0) S) ((_ extract 11 0) X)))
                      (or (not (= U1 #b000000000000000000001))
                          (= ((_ extract 11 0) S) a!26))
                      (or (not (= V1 #b000000000000000000001))
                          (= ((_ extract 11 0) Q) a!29))
                      (or (not (= Y2 #b000000000000000000001)) a!31)
                      (or (not (= X1 #b000000000000000000001))
                          (= ((_ extract 11 0) R1) ((_ extract 11 0) C2))))))
       (= (INV!slice!1 A
                       B
                       C
                       D
                       E
                       F
                       G
                       H
                       I
                       J
                       K
                       L
                       M
                       N
                       O
                       P
                       Q
                       R
                       S
                       T
                       U
                       V
                       W
                       X
                       Y
                       Z
                       A1
                       B1
                       C1
                       D1
                       E1
                       F1
                       G1
                       H1
                       I1
                       J1
                       K1
                       L1
                       M1
                       N1
                       O1
                       P1
                       Q1
                       R1
                       S1
                       T1
                       U1
                       V1
                       W1
                       X1
                       Y1
                       Z1
                       A2
                       B2
                       C2
                       D2
                       E2
                       F2
                       G2
                       H2
                       I2
                       J2
                       K2
                       L2
                       M2
                       N2
                       O2
                       P2
                       Q2
                       R2
                       S2
                       T2
                       U2
                       V2
                       W2
                       X2
                       Y2
                       Z2
                       A3
                       B3
                       C3
                       D3
                       E3
                       F3
                       G3)
          a!32)))))
     :weight 0))
